
Gurobi 9.1.2 (win64) logging started Tue Dec  7 09:40:32 2021

Gurobi Optimizer version 9.1.2 build v9.1.2rc0 (win64)
Thread count: 8 physical cores, 8 logical processors, using up to 8 threads
Optimize a model with 1 rows, 149 columns and 148 nonzeros
Model fingerprint: 0x9eca5cc9
Variable types: 1 continuous, 148 integer (148 binary)
Coefficient statistics:
  Matrix range     [1e+00, 1e+01]
  Objective range  [1e+00, 1e+00]
  Bounds range     [1e+02, 1e+02]
  RHS range        [1e+01, 1e+01]
Presolve time: 0.00s
Presolved: 1 rows, 149 columns, 148 nonzeros
Variable types: 1 continuous, 148 integer (148 binary)

Root simplex log...

Iteration    Objective       Primal Inf.    Dual Inf.      Time
       0   -1.2864749e+02   2.317371e-01   0.000000e+00     16s
       4   -1.2864749e+02   0.000000e+00   0.000000e+00     16s

Root relaxation: objective -1.286475e+02, 4 iterations, 0.00 seconds

    Nodes    |    Current Node    |     Objective Bounds      |     Work
 Expl Unexpl |  Obj  Depth IntInf | Incumbent    BestBd   Gap | It/Node Time

     0     0 -128.64749    0    1          - -128.64749      -     -   15s
H    0     0                       0.6584941 -128.64749      -     -   16s
     0     0  -95.07401    0    3    0.65849  -95.07401      -     -   17s
H    0     0                       0.6583333  -95.07401      -     -   18s
H    0     0                       0.5675589  -95.07401      -     -   18s
     0     0  -60.97685    0    4    0.56756  -60.97685      -     -   19s
     0     0  -50.34104    0    6    0.56756  -50.34104  8970%     -   21s
     0     0  -47.56468    0    5    0.56756  -47.56468  8481%     -   22s
     0     0  -46.75687    0    6    0.56756  -46.75687  8338%     -   22s
     0     0  -45.31596    0    9    0.56756  -45.31596  8084%     -   22s
     0     0  -45.15132    0    7    0.56756  -45.15132  8055%     -   22s
     0     0  -45.14888    0    8    0.56756  -45.14888  8055%     -   22s
     0     0  -43.90734    0    9    0.56756  -43.90734  7836%     -   22s
     0     0  -43.73848    0    9    0.56756  -43.73848  7806%     -   22s
     0     0  -43.69240    0    9    0.56756  -43.69240  7798%     -   22s
     0     0  -41.40078    0   10    0.56756  -41.40078  7395%     -   22s
     0     0  -40.82445    0    9    0.56756  -40.82445  7293%     -   22s
     0     0  -40.64543    0   10    0.56756  -40.64543  7261%     -   22s
     0     0  -40.10947    0    9    0.56756  -40.10947  7167%     -   22s
     0     0  -35.87698    0    5    0.56756  -35.87698  6421%     -   22s
     0     0  -35.87698    0   10    0.56756  -35.87698  6421%     -   23s
     0     0  -35.87698    0    9    0.56756  -35.87698  6421%     -   23s
     0     0  -35.87698    0    9    0.56756  -35.87698  6421%     -   23s
     0     0  -35.87698    0    9    0.56756  -35.87698  6421%     -   23s
     0     0  -35.87698    0   10    0.56756  -35.87698  6421%     -   23s
     0     0  -35.87698    0   10    0.56756  -35.87698  6421%     -   23s
     0     0  -35.87698    0   10    0.56756  -35.87698  6421%     -   24s
     0     0  -35.87698    0   10    0.56756  -35.87698  6421%     -   24s
     0     0  -35.87698    0   11    0.56756  -35.87698  6421%     -   24s
     0     0  -35.87698    0    9    0.56756  -35.87698  6421%     -   24s
     0     0  -35.73135    0   11    0.56756  -35.73135  6396%     -   24s
     0     0  -35.68311    0   11    0.56756  -35.68311  6387%     -   24s
     0     0  -35.55765    0   11    0.56756  -35.55765  6365%     -   24s
     0     0  -35.44956    0    9    0.56756  -35.44956  6346%     -   24s
     0     0  -35.28144    0    9    0.56756  -35.28144  6316%     -   24s
     0     0  -35.08294    0    9    0.56756  -35.08294  6281%     -   24s
     0     0  -35.08167    0    9    0.56756  -35.08167  6281%     -   24s
     0     0  -35.05221    0   11    0.56756  -35.05221  6276%     -   24s
     0     0  -35.03522    0   11    0.56756  -35.03522  6273%     -   24s
     0     2  -31.36523    0   11    0.56756  -31.36523  5626%     -   25s

Cutting planes:
  Gomory: 1
  Cover: 3
  MIR: 8
  StrongCG: 1
  Zero half: 1
  Lazy constraints: 54

Explored 457 nodes (1531 simplex iterations) in 30.85 seconds
Thread count was 8 (of 8 available processors)

Solution count 3: 0.567559 0.658333 0.658494 

Optimal solution found (tolerance 1.00e-04)
Best objective 5.675588685958e-01, best bound 5.675588685958e-01, gap 0.0000%

User-callback calls 1287, time in user-callback 34.27 sec
